c simplified, model count equivalent, formula
p cnf 352 1038
c blackbox version 42
c command line:  ./blackbox -o Examples/tire-world/domain.pddl -f Examples/tire-world/prob01.pddl -printcnf -printexit
c Loading domain file: Examples/tire-world/domain.pddl
c Loading fact file: Examples/tire-world/prob01.pddl
c Problem name: fix-strips1
c Facts loaded.
c time: 1, 34 facts and 1 exclusive pairs.
c time: 2, 38 facts and 9 exclusive pairs.
c time: 3, 40 facts and 11 exclusive pairs.
c time: 4, 40 facts and 9 exclusive pairs.
c time: 5, 42 facts and 23 exclusive pairs.
c time: 6, 45 facts and 37 exclusive pairs.
c time: 7, 47 facts and 40 exclusive pairs.
c time: 8, 47 facts and 29 exclusive pairs.
c time: 9, 47 facts and 27 exclusive pairs.
c 925 nodes created.
c ####################################################
c goals at time 10:
c in_wheel1_trunk c in_jack_trunk c in_pump_trunk 
c Converting graph to wff
c number of action variables = 203
c number of fluent variables = 149
c total number variables = 352
c number clauses = 1038
c added nodes: 844
204 0
205 0
206 0
207 0
208 0
209 0
210 0
211 0
212 0
213 0
214 0
215 0
216 0
352 0
350 0
351 0
2 0
3 0
5 0
6 0
7 0
8 0
10 0
11 0
12 0
13 0
14 0
-15 0
18 0
19 0
23 0
24 0
27 0
-28 0
30 0
31 0
33 0
-36 0
37 0
39 0
45 0
46 0
-48 0
51 0
-52 0
-53 0
-54 0
55 0
57 0
64 0
-68 0
-71 0
73 0
74 0
-77 0
-79 0
80 0
-83 0
84 0
-85 0
87 0
-88 0
-91 0
95 0
-96 0
-97 0
-99 0
-100 0
-102 0
104 0
105 0
-109 0
-110 0
111 0
-113 0
-114 0
-117 0
-123 0
-129 0
-130 0
-132 0
-133 0
137 0
138 0
-140 0
-141 0
-142 0
-143 0
-148 0
-149 0
-150 0
-151 0
152 0
-162 0
-163 0
-164 0
169 0
-171 0
-172 0
-174 0
-176 0
-177 0
-181 0
-186 0
-193 0
217 0
218 0
219 0
220 0
221 0
223 0
224 0
225 0
227 0
228 0
230 0
231 0
232 0
236 0
237 0
239 0
241 0
243 0
244 0
-246 0
247 0
248 0
249 0
-250 0
251 0
256 0
257 0
261 0
262 0
-263 0
266 0
267 0
268 0
-271 0
-272 0
275 0
277 0
278 0
281 0
285 0
286 0
287 0
-288 0
-290 0
-291 0
294 0
-300 0
302 0
-303 0
306 0
-310 0
313 0
-316 0
-321 0
-322 0
323 0
-324 0
326 0
-328 0
-329 0
332 0
75 0
1 0
349 0
66 0
342 0
118 0
144 0
178 0
229 0
301 0
29 0
344 0
347 0
348 0
270 0
259 0
43 0
21 0
32 0
252 0
346 0
253 0
283 0
320 0
284 0
22 0
60 0
298 0
47 0
120 0
337 0
331 0
119 0
258 0
234 0
240 0
297 0
245 0
293 0
305 0
280 0
336 0
312 0
276 0
265 0
296 0
339 0
264 0
333 0
338 0
274 0
255 0
308 0
282 0
86 0
233 0
200 0
199 0
203 0
101 0
134 0
165 0
235 0
269 0
238 0
9 0
70 0
154 0
124 0
69 0
155 0
108 0
146 0
187 0
184 0
201 0
192 0
41 0
4 -226 0
-16 -17 0
-16 -35 0
16 -44 0
-16 -58 0
16 -59 0
-16 222 0
17 222 0
-17 -222 0
-17 226 0
-20 226 0
20 -242 0
25 -38 0
25 49 0
-25 -49 0
-25 222 0
26 -42 0
-26 -50 0
26 -56 0
-26 222 0
-34 -35 0
-34 -44 0
-34 -49 0
-34 -50 0
-34 -56 0
34 -63 0
34 -81 0
-34 -254 0
-35 -44 0
-35 -58 0
38 65 0
-38 -65 0
-40 242 0
40 -260 0
-42 -56 0
-44 -59 0
-50 -56 0
-61 -62 0
-61 -63 0
-61 -72 0
-61 -78 0
-61 -82 0
-61 254 0
-62 -72 0
-62 -89 0
-62 -90 0
-62 254 0
-63 -72 0
-63 -78 0
-63 -81 0
-63 -82 0
-63 260 0
-65 -76 0
-65 -82 0
-67 260 0
67 -279 0
-72 -81 0
-72 -89 0
-72 -90 0
-72 254 0
-76 -78 0
76 107 0
-76 -107 0
-78 -81 0
-78 254 0
-81 -82 0
-82 -106 0
-82 -115 0
-82 254 0
-89 -90 0
-92 -93 0
-92 -94 0
-92 -103 0
-92 -112 0
-92 273 0
-93 -94 0
-93 -103 0
-93 -112 0
-93 -121 0
-93 -122 0
-93 273 0
-94 -103 0
-94 -112 0
-94 279 0
-98 279 0
98 -299 0
-103 -112 0
-103 -121 0
-103 -122 0
-103 273 0
-107 -115 0
115 -125 0
115 -135 0
115 -304 0
116 -295 0
-121 -122 0
-125 -156 0
125 -160 0
125 -170 0
125 -319 0
-126 -127 0
-126 -136 0
-126 -145 0
-126 -153 0
-126 292 0
-127 -136 0
-127 -145 0
-127 299 0
128 -307 0
-131 299 0
131 -317 0
-136 -145 0
-136 -153 0
-136 292 0
-139 289 0
139 -309 0
-147 295 0
147 -315 0
-156 -173 0
-156 307 0
-156 318 0
-157 -158 0
-157 -167 0
-157 -175 0
-157 -179 0
-157 -180 0
-157 311 0
-158 -160 0
-158 -167 0
-158 -175 0
-158 317 0
-158 325 0
-159 307 0
159 -327 0
-160 -170 0
-160 -175 0
160 -182 0
160 -188 0
-160 311 0
-161 317 0
161 -335 0
-166 318 0
166 -334 0
-167 -175 0
-167 -179 0
-167 -180 0
-167 311 0
-167 314 0
168 -341 0
-173 -194 0
-175 325 0
-179 -180 0
-180 314 0
-182 -185 0
-182 -188 0
-182 330 0
-183 -190 0
-183 -196 0
-183 -197 0
-183 330 0
-185 -188 0
-185 330 0
-189 330 0
-190 -196 0
-190 -197 0
-190 330 0
191 -345 0
-194 -195 0
-194 341 0
195 202 0
-195 330 0
-196 -197 0
-198 343 0
-198 345 0
-202 343 0
-202 345 0
-26 56 -78 0
35 59 -72 0
35 59 -90 0
42 50 -76 0
-42 -78 0
44 58 -62 0
44 58 -89 0
-50 56 -78 0
-61 -273 0
61 81 -94 0
61 81 -112 0
62 90 -103 0
62 90 -122 0
-81 -273 0
63 254 -273 0
72 89 -93 0
72 89 -121 0
82 106 -289 0
-92 -292 0
-92 106 -289 0
92 112 -127 0
92 112 -145 0
93 122 -136 0
-94 106 -289 0
-112 -292 0
94 273 -292 0
103 121 -126 0
103 121 -153 0
106 -112 -289 0
106 -115 -289 0
106 273 -289 0
-115 135 -318 0
-125 135 -318 0
-136 -314 0
-126 -325 0
-153 -314 0
-145 -311 0
-127 -325 0
127 292 -311 0
135 289 -318 0
135 295 -318 0
-136 -325 0
136 153 -157 0
136 153 -179 0
145 292 -325 0
156 170 -185 0
-157 -340 0
157 180 -190 0
157 180 -197 0
-175 -330 0
-158 -340 0
158 311 -330 0
-160 -340 0
-167 -340 0
167 179 -183 0
167 179 -196 0
173 194 0
175 311 -340 0
-185 -198 0
182 -188 -198 0
-182 189 -343 0
-183 189 -343 0
185 188 198 0
-185 189 -343 0
-188 189 -343 0
189 -190 -343 0
189 -195 -343 0
189 335 -343 0
189 340 -343 0
190 196 343 0
190 196 345 0
-195 -202 0
42 50 78 -107 0
93 122 126 -314 0
-311 -325 0
156 170 182 -198 0
-330 -340 0
183 190 196 197 0
89 -112 -121 0
89 -94 -121 0
